5 49 48 1 33 28 38 30 22 42 36 43 44 11 17 24 26 47 7 25 29 19 0 34 35 31 20 14 18 21 2 27 10 41 32 13 12 6 40 16 15 8 9 45 39 46 3 23 37 4  
5 49 33 48 1 38 28 30 42 22 36 43 24 47 11 17 44 26 19 25 29 7 0 34 35 31 20 14 18 21 2 27 10 15 32 13 41 45 6 8 40 16 9 12 39 23 3 46 4 37  
5 49 33 48 1 38 28 30 43 22 36 42 44 11 24 17 26 47 7 25 29 19 0 34 31 35 20 14 18 21 2 27 10 15 32 13 41 16 39 23 40 9 3 45 37 46 8 4 12 6  
5 49 33 48 1 38 22 30 42 28 36 43 44 11 24 17 26 47 7 25 29 19 0 34 35 31 20 14 18 21 2 27 10 15 32 13 41 16 39 23 37 40 3 45 9 46 4 8 6 12  
5 49 48 33 1 28 38 30 42 22 36 43 44 11 24 17 26 47 7 25 29 19 0 34 35 31 20 14 18 21 2 27 10 41 32 13 12 40 16 15 9 3 45 46 23 8 37 4 6 39  
5 49 33 48 1 43 28 30 38 22 36 42 44 11 24 17 26 47 7 25 29 19 0 34 35 31 20 14 18 21 2 27 10 15 32 13 41 45 6 16 40 8 9 12 39 23 3 46 4 37  
5 49 33 48 1 22 28 30 43 38 36 42 44 11 24 17 26 47 7 25 29 19 0 34 35 31 20 14 18 21 2 27 10 15 32 13 41 46 45 8 16 3 9 40 39 4 23 37 6 12  
5 49 33 48 1 38 42 22 30 28 36 43 44 11 24 17 26 47 7 25 29 19 0 34 35 31 20 27 9 39 18 14 21 2 10 15 32 13 41 45 16 40 46 3 23 4 37 8 6 12  
